certificates/rado_a15_c267_N37.cnf
c Rad2 upper bound instance: x1 + 15*x2 - x3 = 267, interval [1,37]
p cnf 37 184
1 4 18 0
-1 -4 -18 0
1 19 0
-1 -19 0
1 20 34 0
-1 -20 -34 0
2 5 18 0
-2 -5 -18 0
2 19 20 0
-2 -19 -20 0
2 20 35 0
-2 -20 -35 0
3 6 18 0
-3 -6 -18 0
3 19 21 0
-3 -19 -21 0
3 20 36 0
-3 -20 -36 0
4 7 18 0
-4 -7 -18 0
4 19 22 0
-4 -19 -22 0
4 20 37 0
-4 -20 -37 0
5 8 18 0
-5 -8 -18 0
5 19 23 0
-5 -19 -23 0
6 9 18 0
-6 -9 -18 0
6 19 24 0
-6 -19 -24 0
7 10 18 0
-7 -10 -18 0
7 19 25 0
-7 -19 -25 0
8 11 18 0
-8 -11 -18 0
8 19 26 0
-8 -19 -26 0
9 12 18 0
-9 -12 -18 0
9 19 27 0
-9 -19 -27 0
10 13 18 0
-10 -13 -18 0
10 19 28 0
-10 -19 -28 0
11 14 18 0
-11 -14 -18 0
11 19 29 0
-11 -19 -29 0
12 15 18 0
-12 -15 -18 0
12 19 30 0
-12 -19 -30 0
1 13 17 0
-1 -13 -17 0
13 16 18 0
-13 -16 -18 0
13 19 31 0
-13 -19 -31 0
2 14 17 0
-2 -14 -17 0
14 17 18 0
-14 -17 -18 0
14 19 32 0
-14 -19 -32 0
3 15 17 0
-3 -15 -17 0
15 18 0
-15 -18 0
15 19 33 0
-15 -19 -33 0
4 16 17 0
-4 -16 -17 0
16 18 19 0
-16 -18 -19 0
16 19 34 0
-16 -19 -34 0
5 17 0
-5 -17 0
17 18 20 0
-17 -18 -20 0
17 19 35 0
-17 -19 -35 0
6 17 18 0
-6 -17 -18 0
18 21 0
-18 -21 0
18 19 36 0
-18 -19 -36 0
7 17 19 0
-7 -17 -19 0
18 19 22 0
-18 -19 -22 0
19 37 0
-19 -37 0
8 17 20 0
-8 -17 -20 0
18 20 23 0
-18 -20 -23 0
9 17 21 0
-9 -17 -21 0
18 21 24 0
-18 -21 -24 0
10 17 22 0
-10 -17 -22 0
18 22 25 0
-18 -22 -25 0
11 17 23 0
-11 -17 -23 0
18 23 26 0
-18 -23 -26 0
12 17 24 0
-12 -17 -24 0
18 24 27 0
-18 -24 -27 0
13 17 25 0
-13 -17 -25 0
18 25 28 0
-18 -25 -28 0
14 17 26 0
-14 -17 -26 0
18 26 29 0
-18 -26 -29 0
15 17 27 0
-15 -17 -27 0
18 27 30 0
-18 -27 -30 0
1 16 28 0
-1 -16 -28 0
16 17 28 0
-16 -17 -28 0
18 28 31 0
-18 -28 -31 0
2 16 29 0
-2 -16 -29 0
17 29 0
-17 -29 0
18 29 32 0
-18 -29 -32 0
3 16 30 0
-3 -16 -30 0
17 18 30 0
-17 -18 -30 0
18 30 33 0
-18 -30 -33 0
4 16 31 0
-4 -16 -31 0
17 19 31 0
-17 -19 -31 0
18 31 34 0
-18 -31 -34 0
5 16 32 0
-5 -16 -32 0
17 20 32 0
-17 -20 -32 0
18 32 35 0
-18 -32 -35 0
6 16 33 0
-6 -16 -33 0
17 21 33 0
-17 -21 -33 0
18 33 36 0
-18 -33 -36 0
7 16 34 0
-7 -16 -34 0
17 22 34 0
-17 -22 -34 0
18 34 37 0
-18 -34 -37 0
8 16 35 0
-8 -16 -35 0
17 23 35 0
-17 -23 -35 0
9 16 36 0
-9 -16 -36 0
17 24 36 0
-17 -24 -36 0
10 16 37 0
-10 -16 -37 0
17 25 37 0
-17 -25 -37 0
