certificates/rado_a15_c267_N37.drat
-34 -37 0
-37 0
19 0
-1 0
34 0
-16 0
28 0
10 0
0
